============================[ Problem Statistics ]=============================|                                                                             ||  Number of variables:          4242                                         ||  Number of clauses:           10318                                         ||  Parse time:                   0.70 s                                       ||                                                                             |============================[ Search Statistics ]==============================| Conflicts |          ORIGINAL         |          LEARNT          | Progress ||           |    Vars  Clauses Literals |    Limit  Clauses Lit/Cl |          |===============================================================================|       100 |    1591     6523  1125494 |     2391      100     53 | 62.501 % ||       250 |    1591     6523  1125494 |     2630      250     75 | 62.495 % |===============================================================================restarts              : 3conflicts             : 383            (360 /sec)decisions             : 647            (0.00 % random) (608 /sec)propagations          : 12021          (11287 /sec)conflict literals     : 31574          (94.57 % deleted)CPU time              : 1.065 sSATISFIABLE